DIMENSION: 12
EDGE_WEIGHT_TYPE: EXPLICIT
EDGE_WEIGHT_FORMAT: FULL_MATRIX
EDGE_WEIGHT_SECTION:
32767 81 33 48 53 5 5 55 92 52 44 16 
81 32767 26 58 54 28 7 85 53 2 18 40 
33 26 32767 43 63 49 73 67 27 85 91 60 
48 58 43 32767 39 30 9 59 39 19 49 24 
53 54 63 39 32767 99 76 32767 43 45 47 29 
5 28 49 30 99 32767 40 27 81 18 60 52 
5 7 73 9 76 40 32767 32767 82 32767 57 11 
55 85 67 59 32767 27 32767 32767 22 50 96 2 
92 53 27 39 43 81 82 22 32767 32767 31 18 
52 2 85 19 45 18 32767 50 32767 32767 56 32767 
44 18 91 49 47 60 57 96 31 56 32767 57 
16 40 60 24 29 52 11 2 18 32767 57 32767 
EOF